db/data/74577203318431999130035184572784910110.z3.out
sat
-------------------
1307.038189537
